p cnf 7230 17
-4676 -6381 -6388 0
4676 -6382 0
-6382 6388 0
-4680 -6265 -6385 0
-4678 -6261 -6383 0
4680 -6386 0
4678 -6384 0
-6387 -6388 0
6385 6386 0
6383 6384 0
6381 6382 0
6265 -6386 0
6261 -6384 0
6379 6380 0
-6379 -6380 0
-6259 6388 0
6259 -6388 0
